117811
119232
119215
118802
116514
119504
119827
118333
117815
119251
217377
219077
217847
216868
213859
215086
217940
219990
214375
220899
304387
302379
302416
300784
304374
301836
304952
296478
301359
307089
